Welcome to the CBC MILP Solver 
Version: 2.10.7 
Build Date: Feb 14 2022 

command line - cbc new_inputs/order/dag204_tiers_input.lp sec 1800 solve solu no_transitive/dag204_tiers_input.lp (default strategy 1)
### CoinLpIO::is_invalid_name(): Name 6384 should not start with a number
### CoinLpIO::are_invalid_names(): Invalid name: vnames[4760]: 6384
### CoinLpIO::is_invalid_name(): Name is empty
### CoinLpIO::are_invalid_names(): Invalid name: vnames[4893]:
### CoinLpIO::readLp(): Invalid column names
Now using default column names.
seconds was changed from 1e+100 to 1800
Continuous objective value is 727061 - 35.73 seconds
Cgl0002I 260 variables fixed
Cgl0003I 0 fixed, 24 tightened bounds, 3685 strengthened rows, 0 substitutions
Cgl0003I 0 fixed, 9 tightened bounds, 535 strengthened rows, 0 substitutions
Cgl0003I 0 fixed, 1 tightened bounds, 110 strengthened rows, 0 substitutions
Cgl0003I 0 fixed, 0 tightened bounds, 11 strengthened rows, 0 substitutions
Cgl0004I processed model has 19165 rows, 6392 columns (6392 integer (6323 of which binary)) and 63479 elements
Cutoff increment increased from 1e-05 to 0.9999
Cbc0045I 1 integer variables out of 6392 objects (6392 integer) have cost of 1 - high priority
Cbc0045I branch on satisfied Y create fake objective Y random cost Y
Cbc0038I Initial state - 3229 integers unsatisfied sum - 1078.47
Cbc0038I Pass   1: (83.25 seconds) suminf.  472.58406 (3165) obj. 1.80126e+06 iterations 16859
Cbc0038I Pass   2: (91.53 seconds) suminf.  303.32615 (3233) obj. 1.94419e+06 iterations 7181
Cbc0038I Pass   3: (96.31 seconds) suminf.  263.68056 (3306) obj. 2.03299e+06 iterations 4210
Cbc0038I Pass   4: (98.16 seconds) suminf.  258.05878 (3285) obj. 2.03574e+06 iterations 1651
Cbc0038I Pass   5: (99.09 seconds) suminf.  256.29032 (3292) obj. 2.03615e+06 iterations 726
Cbc0038I Pass   6: (100.28 seconds) suminf.  256.35540 (3322) obj. 2.03859e+06 iterations 891
Cbc0038I Pass   7: (100.66 seconds) suminf.  256.02530 (3307) obj. 2.03849e+06 iterations 236
Cbc0038I Pass   8: (103.38 seconds) suminf.  255.13609 (3303) obj. 2.03341e+06 iterations 2320
Cbc0038I Pass   9: (104.83 seconds) suminf.  253.14042 (3279) obj. 2.02909e+06 iterations 1148
Cbc0038I Pass  10: (107.14 seconds) suminf.  249.15682 (3323) obj. 2.20104e+06 iterations 2005
Cbc0038I Pass  11: (108.06 seconds) suminf.  247.45009 (3324) obj. 2.20078e+06 iterations 714
Cbc0038I Pass  12: (110.06 seconds) suminf.  247.70079 (3362) obj. 2.24038e+06 iterations 1671
Cbc0038I Pass  13: (111.17 seconds) suminf.  247.20111 (3370) obj. 2.16389e+06 iterations 828
Cbc0038I Pass  14: (112.76 seconds) suminf.  245.64972 (3401) obj. 2.15984e+06 iterations 1254
Cbc0038I Pass  15: (113.10 seconds) suminf.  246.03589 (3395) obj. 2.16392e+06 iterations 210
Cbc0038I Pass  16: (114.86 seconds) suminf.  245.66551 (3400) obj. 2.15422e+06 iterations 1413
Cbc0038I Pass  17: (115.76 seconds) suminf.  245.67711 (3387) obj. 2.15664e+06 iterations 639
Cbc0038I Pass  18: (118.33 seconds) suminf.  245.11523 (3413) obj. 2.1503e+06 iterations 2192
Cbc0038I Pass  19: (119.70 seconds) suminf.  243.97650 (3395) obj. 2.15087e+06 iterations 1118
Cbc0038I Pass  20: (120.88 seconds) suminf.  244.89904 (3327) obj. 2.15114e+06 iterations 944
Cbc0038I Pass  21: (121.87 seconds) suminf.  245.80594 (3340) obj. 2.1527e+06 iterations 759
Cbc0038I Pass  22: (123.53 seconds) suminf.  246.14197 (3366) obj. 2.15478e+06 iterations 1475
Cbc0038I Pass  23: (123.71 seconds) suminf.  245.87787 (3370) obj. 2.15908e+06 iterations 156
Cbc0038I Pass  24: (125.34 seconds) suminf.  244.80501 (3343) obj. 2.15432e+06 iterations 1520
Cbc0038I Pass  25: (126.61 seconds) suminf.  244.20005 (3310) obj. 2.16369e+06 iterations 1075
Cbc0038I Pass  26: (127.46 seconds) suminf.  244.09306 (3366) obj. 2.16516e+06 iterations 881
Cbc0038I Pass  27: (127.73 seconds) suminf.  244.15408 (3370) obj. 2.16496e+06 iterations 193
Cbc0038I Pass  28: (128.65 seconds) suminf.  245.05554 (3272) obj. 2.15733e+06 iterations 948
Cbc0038I Pass  29: (128.92 seconds) suminf.  245.08839 (3284) obj. 2.16062e+06 iterations 252
Cbc0038I Pass  30: (130.11 seconds) suminf.  244.03934 (3391) obj. 2.15719e+06 iterations 1143
Cbc0038I Pass  31: (130.56 seconds) suminf.  243.48482 (3412) obj. 2.16416e+06 iterations 326
Cbc0038I Pass  32: (131.13 seconds) suminf.  244.15410 (3370) obj. 2.16496e+06 iterations 428
Cbc0038I Pass  33: (132.28 seconds) suminf.  245.05554 (3272) obj. 2.15733e+06 iterations 1171
Cbc0038I Pass  34: (132.58 seconds) suminf.  245.08839 (3284) obj. 2.16062e+06 iterations 248
Cbc0038I Pass  35: (133.66 seconds) suminf.  244.34675 (3365) obj. 2.1651e+06 iterations 1026
Cbc0038I Pass  36: (138.26 seconds) suminf.  269.60481 (3187) obj. 2.18024e+06 iterations 4682
Cbc0038I Pass  37: (141.50 seconds) suminf.  243.92452 (3361) obj. 2.26446e+06 iterations 2920
Cbc0038I Pass  38: (142.70 seconds) suminf.  240.90343 (3432) obj. 2.26069e+06 iterations 1077
Cbc0038I Pass  39: (143.86 seconds) suminf.  241.34084 (3357) obj. 2.26007e+06 iterations 1051
Cbc0038I Pass  40: (144.30 seconds) suminf.  240.54513 (3364) obj. 2.26e+06 iterations 314
Cbc0038I Pass  41: (145.38 seconds) suminf.  239.77955 (3377) obj. 2.2658e+06 iterations 926
Cbc0038I Pass  42: (145.43 seconds) suminf.  239.34412 (3375) obj. 2.26578e+06 iterations 14
Cbc0038I Pass  43: (146.08 seconds) suminf.  239.41264 (3408) obj. 2.26458e+06 iterations 483
Cbc0038I Pass  44: (146.26 seconds) suminf.  239.33145 (3416) obj. 2.26469e+06 iterations 119
Cbc0038I Pass  45: (146.47 seconds) suminf.  240.29927 (3404) obj. 2.26453e+06 iterations 130
Cbc0038I Pass  46: (149.53 seconds) suminf.  259.27942 (3259) obj. 2.26475e+06 iterations 3190
Cbc0038I Pass  47: (152.59 seconds) suminf.  235.64535 (3381) obj. 2.25896e+06 iterations 2859
Cbc0038I Pass  48: (153.42 seconds) suminf.  233.99530 (3294) obj. 2.25907e+06 iterations 645
Cbc0038I Pass  49: (153.90 seconds) suminf.  233.19661 (3400) obj. 2.25811e+06 iterations 332
Cbc0038I Pass  50: (155.32 seconds) suminf.  231.71026 (3313) obj. 2.25916e+06 iterations 1190
Cbc0038I Pass  51: (155.74 seconds) suminf.  232.12712 (3288) obj. 2.258e+06 iterations 259
Cbc0038I Pass  52: (156.68 seconds) suminf.  231.44035 (3277) obj. 2.25959e+06 iterations 709
Cbc0038I Pass  53: (156.91 seconds) suminf.  231.34742 (3287) obj. 2.25932e+06 iterations 141
Cbc0038I Pass  54: (157.84 seconds) suminf.  232.31587 (3334) obj. 2.26021e+06 iterations 657
Cbc0038I Pass  55: (158.07 seconds) suminf.  232.42219 (3333) obj. 2.26014e+06 iterations 133
Cbc0038I Pass  56: (158.82 seconds) suminf.  232.21659 (3306) obj. 2.25823e+06 iterations 496
Cbc0038I Pass  57: (159.26 seconds) suminf.  232.12712 (3288) obj. 2.258e+06 iterations 282
Cbc0038I Pass  58: (160.23 seconds) suminf.  231.50297 (3276) obj. 2.26007e+06 iterations 719
Cbc0038I Pass  59: (160.50 seconds) suminf.  231.34742 (3287) obj. 2.25932e+06 iterations 164
Cbc0038I Pass  60: (161.36 seconds) suminf.  232.35388 (3329) obj. 2.26025e+06 iterations 621
Cbc0038I Pass  61: (161.78 seconds) suminf.  232.42219 (3333) obj. 2.26014e+06 iterations 249
Cbc0038I Pass  62: (162.74 seconds) suminf.  233.25406 (3293) obj. 2.25909e+06 iterations 710
Cbc0038I Pass  63: (163.42 seconds) suminf.  232.12712 (3288) obj. 2.258e+06 iterations 444
Cbc0038I Pass  64: (164.29 seconds) suminf.  231.27277 (3278) obj. 2.25954e+06 iterations 652
Cbc0038I Pass  65: (164.51 seconds) suminf.  231.34742 (3287) obj. 2.25932e+06 iterations 129
Cbc0038I Pass  66: (165.19 seconds) suminf.  231.40358 (3270) obj. 2.25979e+06 iterations 500
Cbc0038I Pass  67: (165.33 seconds) suminf.  231.28408 (3281) obj. 2.26072e+06 iterations 82
Cbc0038I Pass  68: (166.29 seconds) suminf.  231.80545 (3308) obj. 2.25952e+06 iterations 850
Cbc0038I Pass  69: (166.77 seconds) suminf.  231.37995 (3309) obj. 2.2595e+06 iterations 313
Cbc0038I Pass  70: (166.84 seconds) suminf.  231.41258 (3300) obj. 2.25964e+06 iterations 33
Cbc0038I Pass  71: (170.05 seconds) suminf.  259.34270 (3105) obj. 2.25094e+06 iterations 3410
Cbc0038I Pass  72: (172.92 seconds) suminf.  239.57762 (3212) obj. 2.25741e+06 iterations 2943
Cbc0038I Pass  73: (174.01 seconds) suminf.  235.39949 (3202) obj. 2.25791e+06 iterations 906
Cbc0038I Pass  74: (174.51 seconds) suminf.  235.20133 (3279) obj. 2.2576e+06 iterations 359
Cbc0038I Pass  75: (175.72 seconds) suminf.  236.79036 (3231) obj. 2.25937e+06 iterations 1097
Cbc0038I Pass  76: (176.10 seconds) suminf.  236.24765 (3232) obj. 2.25801e+06 iterations 271
Cbc0038I Pass  77: (177.11 seconds) suminf.  234.57609 (3199) obj. 2.25412e+06 iterations 895
Cbc0038I Pass  78: (177.33 seconds) suminf.  234.17570 (3200) obj. 2.25558e+06 iterations 149
Cbc0038I Pass  79: (178.16 seconds) suminf.  234.58111 (3227) obj. 2.25767e+06 iterations 686
Cbc0038I Pass  80: (178.62 seconds) suminf.  233.82839 (3224) obj. 2.26076e+06 iterations 324
Cbc0038I Pass  81: (179.68 seconds) suminf.  234.04730 (3206) obj. 2.25809e+06 iterations 901
Cbc0038I Pass  82: (179.95 seconds) suminf.  233.74603 (3246) obj. 2.25807e+06 iterations 181
Cbc0038I Pass  83: (181.09 seconds) suminf.  233.68737 (3216) obj. 2.26211e+06 iterations 969
Cbc0038I Pass  84: (184.77 seconds) suminf.  255.50612 (3163) obj. 2.26037e+06 iterations 3464
Cbc0038I Pass  85: (187.37 seconds) suminf.  237.51464 (3254) obj. 2.26159e+06 iterations 2517
Cbc0038I Pass  86: (188.47 seconds) suminf.  237.14230 (3216) obj. 2.26216e+06 iterations 904
Cbc0038I Pass  87: (189.39 seconds) suminf.  235.14609 (3233) obj. 2.26275e+06 iterations 733
Cbc0038I Pass  88: (190.97 seconds) suminf.  234.18140 (3264) obj. 2.25339e+06 iterations 1421
Cbc0038I Pass  89: (191.38 seconds) suminf.  233.23975 (3264) obj. 2.25415e+06 iterations 273
Cbc0038I Pass  90: (192.61 seconds) suminf.  233.70594 (3272) obj. 2.25357e+06 iterations 978
Cbc0038I Pass  91: (193.41 seconds) suminf.  230.36304 (3274) obj. 2.25653e+06 iterations 616
Cbc0038I Pass  92: (194.68 seconds) suminf.  230.46832 (3307) obj. 2.26341e+06 iterations 1065
Cbc0038I Pass  93: (194.79 seconds) suminf.  230.37055 (3308) obj. 2.26379e+06 iterations 57
Cbc0038I Pass  94: (196.28 seconds) suminf.  231.47740 (3263) obj. 2.26556e+06 iterations 1236
Cbc0038I Pass  95: (196.82 seconds) suminf.  231.75551 (3267) obj. 2.25869e+06 iterations 359
Cbc0038I Pass  96: (197.60 seconds) suminf.  231.85256 (3323) obj. 2.2612e+06 iterations 579
Cbc0038I Pass  97: (197.94 seconds) suminf.  232.03887 (3317) obj. 2.26146e+06 iterations 236
Cbc0038I Pass  98: (198.69 seconds) suminf.  231.90793 (3278) obj. 2.26053e+06 iterations 559
Cbc0038I Pass  99: (198.75 seconds) suminf.  232.26398 (3282) obj. 2.26055e+06 iterations 22
Cbc0038I Pass 100: (202.93 seconds) suminf.  257.12084 (3088) obj. 2.25804e+06 iterations 3713
Cbc0038I No solution found this major pass
Cbc0038I Before mini branch and bound, 1037 integers at bound fixed and 0 continuous
Cbc0038I Full problem 19165 rows 6392 columns, reduced to 16638 rows 5249 columns - too large
Cbc0038I Mini branch and bound did not improve solution (217.00 seconds)
Cbc0038I After 217.00 seconds - Feasibility pump exiting - took 155.42 seconds
Cbc0031I 171 added rows had average density of 33.631579
Cbc0013I At root node, 171 cuts changed objective from 733803.53 to 858981.97 in 50 passes
Cbc0014I Cut generator 0 (Probing) - 91 row cuts average 3.9 elements, 7 column cuts (87 active)  in 3.850 seconds - new frequency is 1
Cbc0014I Cut generator 1 (Gomory) - 521 row cuts average 27.3 elements, 0 column cuts (0 active)  in 25.612 seconds - new frequency is 1
Cbc0014I Cut generator 2 (Knapsack) - 8 row cuts average 4.2 elements, 0 column cuts (0 active)  in 0.187 seconds - new frequency is -100
Cbc0014I Cut generator 3 (Clique) - 0 row cuts average 0.0 elements, 0 column cuts (0 active)  in 1.561 seconds - new frequency is -100
Cbc0014I Cut generator 4 (MixedIntegerRounding2) - 0 row cuts average 0.0 elements, 0 column cuts (0 active)  in 0.384 seconds - new frequency is -100
Cbc0014I Cut generator 5 (FlowCover) - 4 row cuts average 4.2 elements, 0 column cuts (0 active)  in 0.232 seconds - new frequency is -100
Cbc0014I Cut generator 6 (TwoMirCuts) - 1476 row cuts average 52.3 elements, 0 column cuts (0 active)  in 6.051 seconds - new frequency is 1
Cbc0014I Cut generator 7 (ZeroHalf) - 387 row cuts average 35.4 elements, 0 column cuts (0 active)  in 43.114 seconds - new frequency is 1
Cbc0010I After 0 nodes, 1 on tree, 1e+50 best solution, best possible 858981.97 (1234.24 seconds)
Cbc0020I Exiting on maximum time
Cbc0005I Partial search - best objective 1e+50 (best possible 858981.97), took 894543 iterations and 11 nodes (1798.11 seconds)
Cbc0032I Strong branching done 16 times (221 iterations), fathomed 0 nodes and fixed 0 variables
Cbc0035I Maximum depth 8, 0 variables fixed on reduced cost
Cuts at root node changed objective from 733804 to 858982
Probing was tried 78 times and created 124 cuts of which 80 were active after adding rounds of cuts (4.040 seconds)
Gomory was tried 78 times and created 561 cuts of which 0 were active after adding rounds of cuts (28.740 seconds)
Knapsack was tried 50 times and created 8 cuts of which 0 were active after adding rounds of cuts (0.187 seconds)
Clique was tried 50 times and created 0 cuts of which 0 were active after adding rounds of cuts (1.561 seconds)
MixedIntegerRounding2 was tried 50 times and created 0 cuts of which 0 were active after adding rounds of cuts (0.384 seconds)
FlowCover was tried 50 times and created 4 cuts of which 0 were active after adding rounds of cuts (0.232 seconds)
TwoMirCuts was tried 78 times and created 2009 cuts of which 0 were active after adding rounds of cuts (11.022 seconds)
ZeroHalf was tried 78 times and created 467 cuts of which 0 were active after adding rounds of cuts (66.954 seconds)
ImplicationCuts was tried 28 times and created 36 cuts of which 0 were active after adding rounds of cuts (0.019 seconds)

Result - Stopped on time limit

No feasible solution found
Lower bound:                    858981.971
Enumerated nodes:               11
Total iterations:               894543
Time (CPU seconds):             1798.12
Time (Wallclock seconds):       1801.42

Total time (CPU seconds):       1798.17   (Wallclock seconds):       1801.50

